p wcnf 140 1400
4 -137 140 0
9 -136 -140 0
4 -136 140 0
3 -134 139 0
3 -133 139 0
6 -131 136 0
7 -129 -133 0
2 -128 137 0
5 -127 133 0
9 -127 135 0
5 -126 -139 0
7 -126 -131 0
8 -126 137 0
10 -123 128 0
6 -121 125 0
6 -120 -131 0
7 -120 -130 0
2 -119 133 0
7 -117 -118 0
7 -117 135 0
6 -115 -127 0
3 -115 132 0
2 -114 -135 0
2 -114 -131 0
2 -113 -138 0
8 -113 122 0
6 -113 139 0
6 -111 -115 0
10 -111 113 0
9 -110 115 0
5 -110 130 0
4 -109 110 0
8 -107 -130 0
8 -107 118 0
6 -107 138 0
1 -106 -128 0
3 -106 -110 0
3 -105 -108 0
2 -105 127 0
7 -104 -110 0
2 -104 106 0
6 -103 -113 0
5 -103 112 0
9 -103 140 0
6 -102 107 0
10 -102 134 0
5 -101 -132 0
3 -101 -123 0
2 -101 110 0
2 -101 126 0
9 -101 129 0
6 -99 -122 0
4 -99 103 0
10 -99 119 0
7 -99 129 0
5 -98 -108 0
8 -98 -106 0
3 -98 99 0
1 -98 132 0
7 -98 135 0
2 -97 -131 0
5 -97 -115 0
1 -97 -98 0
9 -96 -113 0
3 -96 132 0
6 -95 -111 0
9 -95 -103 0
5 -95 106 0
9 -94 -137 0
1 -94 -121 0
2 -94 -105 0
10 -94 126 0
6 -93 100 0
6 -93 119 0
8 -92 -135 0
2 -92 94 0
6 -92 110 0
4 -91 101 0
4 -91 136 0
6 -90 -116 0
4 -90 -115 0
3 -90 -96 0
3 -89 -134 0
8 -89 -103 0
3 -89 -93 0
9 -89 106 0
3 -88 -118 0
9 -88 -91 0
3 -88 101 0
3 -87 -137 0
6 -87 -119 0
4 -86 -126 0
7 -86 -104 0
6 -86 121 0
3 -86 140 0
9 -85 -128 0
3 -85 102 0
1 -84 -96 0
4 -84 -91 0
1 -84 -90 0
1 -84 -85 0
5 -84 124 0
10 -83 -87 0
7 -83 104 0
10 -83 124 0
8 -83 129 0
7 -83 133 0
6 -82 -110 0
2 -82 100 0
10 -81 -113 0
2 -81 -107 0
5 -81 -83 0
3 -80 -133 0
4 -80 -106 0
3 -80 -95 0
4 -80 82 0
3 -80 121 0
5 -79 -99 0
3 -79 -97 0
5 -79 -95 0
8 -79 -93 0
9 -79 92 0
7 -79 115 0
5 -79 124 0
5 -78 -121 0
9 -78 120 0
3 -77 -109 0
7 -77 -104 0
9 -77 101 0
6 -77 125 0
7 -76 -137 0
10 -76 -94 0
10 -76 -93 0
7 -76 98 0
6 -76 140 0
10 -75 -130 0
6 -75 -95 0
3 -75 -90 0
5 -75 81 0
7 -74 87 0
3 -74 97 0
6 -73 -105 0
2 -73 116 0
5 -73 122 0
9 -73 128 0
5 -73 135 0
8 -72 -107 0
2 -72 75 0
9 -72 117 0
1 -72 120 0
6 -71 -114 0
7 -71 -104 0
9 -71 -88 0
3 -71 -84 0
1 -71 -78 0
4 -71 97 0
2 -71 100 0
4 -71 122 0
10 -71 132 0
1 -70 -136 0
9 -70 -121 0
7 -70 -84 0
10 -69 -108 0
8 -69 -87 0
4 -69 -84 0
6 -69 -71 0
8 -69 93 0
9 -68 -134 0
8 -68 -133 0
4 -68 84 0
5 -68 88 0
2 -68 99 0
9 -68 108 0
6 -68 112 0
6 -68 114 0
8 -67 -128 0
10 -67 -102 0
4 -67 92 0
10 -67 106 0
9 -67 115 0
4 -67 129 0
6 -66 -107 0
5 -66 -95 0
2 -66 -85 0
8 -66 75 0
6 -66 78 0
5 -66 90 0
9 -66 111 0
8 -65 -96 0
5 -65 83 0
9 -65 139 0
7 -64 -137 0
1 -64 -123 0
8 -64 -114 0
5 -64 -105 0
4 -64 -75 0
4 -64 -67 0
4 -64 71 0
3 -64 127 0
3 -63 -134 0
6 -63 -79 0
7 -63 64 0
4 -63 97 0
6 -62 -123 0
3 -62 -90 0
8 -62 -64 0
4 -62 96 0
3 -62 103 0
2 -62 104 0
4 -62 116 0
2 -62 125 0
5 -61 83 0
8 -61 88 0
7 -61 97 0
6 -61 120 0
6 -61 121 0
3 -60 -129 0
1 -60 -113 0
4 -60 -81 0
10 -60 -75 0
5 -60 108 0
3 -60 111 0
7 -59 -108 0
5 -59 67 0
1 -59 74 0
2 -59 101 0
8 -58 -125 0
5 -58 -79 0
5 -58 83 0
1 -58 137 0
6 -58 138 0
1 -57 -102 0
7 -57 -64 0
9 -57 58 0
6 -57 66 0
10 -57 72 0
7 -57 76 0
9 -57 84 0
3 -57 112 0
8 -57 114 0
3 -57 132 0
4 -56 -127 0
3 -56 -90 0
10 -56 -80 0
1 -56 -69 0
7 -56 59 0
6 -56 68 0
3 -56 124 0
7 -55 63 0
9 -54 -133 0
3 -54 -122 0
2 -54 -121 0
2 -54 -111 0
8 -54 -110 0
6 -54 -90 0
2 -54 83 0
10 -54 87 0
5 -54 107 0
6 -54 110 0
4 -54 116 0
5 -53 -127 0
3 -53 -110 0
5 -53 -101 0
2 -53 -96 0
2 -53 107 0
9 -53 123 0
2 -53 135 0
8 -52 -139 0
8 -52 100 0
4 -51 -127 0
6 -51 -120 0
10 -51 -118 0
8 -51 -102 0
7 -51 -81 0
10 -51 62 0
8 -51 72 0
5 -51 80 0
5 -51 117 0
10 -51 139 0
2 -50 -59 0
4 -50 69 0
2 -49 -140 0
3 -49 -127 0
6 -49 -115 0
10 -49 -68 0
9 -49 -64 0
7 -49 66 0
10 -49 79 0
3 -49 95 0
3 -49 104 0
4 -49 118 0
7 -49 133 0
5 -48 -136 0
7 -48 -114 0
9 -48 -105 0
5 -48 -97 0
7 -48 -90 0
10 -48 -79 0
3 -48 98 0
5 -48 136 0
4 -47 -117 0
8 -47 -82 0
5 -47 73 0
1 -47 115 0
5 -47 131 0
4 -46 -130 0
8 -46 -115 0
9 -46 -114 0
9 -46 -113 0
8 -46 -104 0
1 -46 -56 0
3 -46 82 0
9 -45 -123 0
4 -45 -71 0
8 -45 -70 0
9 -45 73 0
3 -45 85 0
5 -45 130 0
9 -45 134 0
5 -45 137 0
7 -45 139 0
3 -44 -140 0
2 -44 -136 0
2 -44 -135 0
9 -44 -115 0
10 -44 -96 0
6 -44 -78 0
6 -44 -58 0
9 -44 112 0
8 -43 -129 0
10 -43 -104 0
3 -43 -102 0
6 -43 -81 0
5 -43 -65 0
3 -43 -52 0
10 -43 53 0
8 -43 59 0
2 -43 90 0
9 -43 106 0
7 -43 117 0
9 -43 123 0
10 -43 124 0
9 -42 -119 0
8 -42 -85 0
3 -42 125 0
7 -41 -101 0
8 -41 -96 0
5 -41 -90 0
2 -41 64 0
7 -41 130 0
9 -40 -131 0
7 -40 -107 0
8 -40 101 0
1 -39 -128 0
8 -39 -93 0
8 -39 70 0
1 -39 94 0
4 -39 105 0
4 -39 127 0
10 -39 130 0
2 -38 -135 0
4 -38 -77 0
3 -38 -66 0
6 -38 -60 0
7 -38 -43 0
5 -38 57 0
6 -38 63 0
5 -38 65 0
6 -38 75 0
5 -37 -140 0
2 -37 -120 0
5 -37 -91 0
5 -37 79 0
1 -37 139 0
3 -36 -138 0
7 -36 -137 0
7 -36 -113 0
10 -36 -107 0
2 -36 -91 0
8 -36 -71 0
6 -36 -53 0
1 -36 52 0
5 -36 92 0
5 -36 130 0
2 -36 133 0
3 -36 134 0
2 -36 138 0
2 -35 -93 0
6 -35 -63 0
5 -35 -56 0
2 -35 -54 0
7 -35 49 0
7 -35 70 0
4 -35 74 0
3 -35 89 0
5 -35 117 0
8 -35 133 0
8 -34 -44 0
9 -34 -42 0
5 -34 129 0
4 -33 -133 0
1 -33 -123 0
8 -33 -120 0
8 -33 -107 0
1 -33 -96 0
1 -33 -70 0
5 -33 -66 0
7 -33 68 0
1 -33 73 0
6 -33 121 0
5 -33 138 0
6 -32 -135 0
7 -32 -122 0
9 -32 -118 0
10 -32 -80 0
8 -32 -61 0
2 -32 -33 0
2 -32 44 0
9 -32 47 0
7 -32 58 0
6 -32 140 0
10 -31 -124 0
4 -31 -55 0
3 -31 -37 0
4 -31 122 0
6 -31 124 0
7 -30 -121 0
2 -30 -107 0
4 -30 -98 0
6 -30 102 0
6 -30 133 0
7 -30 140 0
6 -29 -134 0
4 -29 -101 0
4 -29 -66 0
7 -29 -56 0
5 -29 -47 0
9 -29 -46 0
4 -29 -41 0
5 -29 50 0
5 -29 94 0
8 -29 98 0
1 -29 104 0
2 -29 118 0
7 -28 -118 0
10 -28 -73 0
8 -28 -30 0
9 -28 82 0
2 -28 98 0
7 -28 123 0
6 -27 34 0
7 -27 35 0
7 -27 45 0
9 -27 73 0
9 -27 97 0
10 -27 132 0
4 -26 -131 0
6 -26 -79 0
2 -26 -64 0
7 -26 -55 0
2 -26 -47 0
7 -26 -44 0
4 -26 35 0
7 -26 71 0
2 -26 97 0
7 -25 -110 0
4 -25 -100 0
5 -25 -98 0
6 -25 -53 0
7 -25 -48 0
9 -25 31 0
10 -25 34 0
6 -25 38 0
9 -25 123 0
2 -25 129 0
3 -25 140 0
9 -24 -140 0
9 -24 -123 0
2 -24 -102 0
10 -24 -94 0
6 -24 -75 0
6 -24 -50 0
6 -24 -31 0
3 -24 61 0
5 -24 62 0
5 -24 75 0
3 -24 77 0
8 -24 99 0
1 -23 -138 0
5 -23 -136 0
5 -23 -135 0
2 -23 -66 0
2 -23 25 0
8 -23 69 0
9 -23 105 0
2 -23 122 0
6 -22 -116 0
3 -22 -105 0
7 -22 -87 0
2 -22 -74 0
9 -22 -71 0
6 -22 -65 0
2 -22 -53 0
5 -22 -27 0
6 -22 90 0
3 -22 112 0
7 -21 -127 0
5 -21 -114 0
2 -21 -96 0
8 -21 -85 0
4 -21 -74 0
7 -21 -69 0
4 -21 -41 0
10 -21 -26 0
9 -21 24 0
8 -21 29 0
5 -21 47 0
3 -21 105 0
6 -21 135 0
5 -21 139 0
6 -20 -128 0
2 -20 45 0
6 -20 89 0
7 -20 121 0
9 -20 132 0
5 -19 -122 0
8 -19 -98 0
5 -19 -80 0
7 -19 -66 0
5 -19 -61 0
6 -19 39 0
6 -19 45 0
1 -19 51 0
7 -19 74 0
10 -19 86 0
6 -18 -108 0
8 -18 -35 0
7 -18 -28 0
9 -18 25 0
9 -18 44 0
4 -17 -112 0
4 -17 -105 0
6 -17 60 0
7 -17 103 0
3 -17 134 0
5 -16 -114 0
5 -16 -90 0
7 -16 -86 0
7 -16 36 0
1 -16 41 0
2 -16 51 0
3 -15 -118 0
2 -15 -79 0
7 -15 -46 0
8 -15 -24 0
1 -15 66 0
2 -15 79 0
6 -15 95 0
5 -14 -137 0
7 -14 -105 0
1 -14 -67 0
10 -14 35 0
3 -14 58 0
1 -14 136 0
7 -13 35 0
3 -13 40 0
6 -13 85 0
5 -13 117 0
9 -12 -117 0
5 -12 -103 0
4 -12 -93 0
3 -12 -52 0
8 -12 -49 0
8 -12 -45 0
9 -12 -27 0
1 -12 48 0
3 -12 57 0
4 -12 102 0
7 -11 -103 0
9 -11 -45 0
5 -11 -44 0
8 -11 -22 0
1 -11 55 0
6 -11 74 0
6 -11 138 0
9 -10 -126 0
6 -10 -106 0
6 -10 -105 0
5 -10 -97 0
1 -10 -44 0
4 -10 -30 0
5 -10 23 0
1 -10 38 0
6 -10 48 0
6 -10 61 0
7 -10 79 0
8 -9 -133 0
2 -9 -122 0
1 -9 12 0
6 -9 22 0
7 -9 23 0
4 -9 55 0
8 -9 59 0
5 -9 127 0
2 -8 -104 0
7 -8 -91 0
5 -8 -83 0
4 -8 -40 0
1 -8 20 0
3 -8 51 0
3 -8 56 0
5 -8 67 0
10 -8 103 0
3 -8 132 0
9 -7 -107 0
5 -7 -104 0
2 -7 -71 0
5 -7 -28 0
2 -7 -17 0
6 -7 12 0
5 -7 47 0
5 -7 83 0
1 -7 87 0
5 -7 90 0
10 -7 103 0
6 -7 108 0
2 -7 139 0
8 -6 -119 0
7 -6 -38 0
2 -6 70 0
4 -6 137 0
4 -5 -136 0
5 -5 -101 0
2 -5 35 0
7 -5 36 0
6 -5 39 0
8 -5 49 0
3 -4 -130 0
9 -4 -100 0
8 -4 -93 0
4 -4 -86 0
2 -4 53 0
3 -4 107 0
4 -4 109 0
5 -4 124 0
2 -3 -110 0
8 -3 -105 0
6 -3 -28 0
7 -3 -21 0
9 -3 -16 0
1 -3 8 0
2 -3 17 0
4 -3 36 0
2 -3 79 0
6 -3 103 0
3 -2 -77 0
7 -2 -48 0
7 -2 -38 0
1 -2 -37 0
4 -2 -34 0
8 -2 -30 0
4 -2 36 0
7 -2 90 0
3 -2 93 0
5 -2 113 0
5 -2 125 0
9 -1 -123 0
4 -1 -106 0
6 -1 -74 0
8 -1 -61 0
2 -1 -28 0
9 -1 39 0
9 -1 67 0
4 -1 87 0
3 1 -137 0
4 1 -97 0
6 1 -70 0
2 1 -68 0
9 1 -48 0
2 1 30 0
10 1 50 0
9 1 72 0
3 1 111 0
4 2 -121 0
10 2 -112 0
9 2 -109 0
6 2 -61 0
7 2 -52 0
6 2 -14 0
6 2 15 0
1 2 85 0
4 2 118 0
9 2 132 0
8 3 -116 0
7 3 -58 0
5 3 -56 0
2 3 -55 0
5 3 33 0
7 3 103 0
8 3 120 0
3 4 -62 0
9 4 -29 0
7 4 20 0
3 4 30 0
3 4 55 0
9 4 82 0
6 4 107 0
7 5 -79 0
10 5 -43 0
4 5 -34 0
9 5 11 0
9 5 43 0
3 5 45 0
2 5 68 0
3 5 109 0
3 6 -124 0
9 6 -122 0
8 6 -105 0
10 6 -80 0
5 6 -71 0
5 6 -62 0
10 6 111 0
8 6 115 0
4 6 124 0
8 7 -139 0
5 7 -113 0
8 7 -80 0
9 7 -62 0
9 7 -35 0
5 7 -30 0
7 7 -16 0
2 7 -12 0
4 7 8 0
3 7 11 0
4 7 29 0
5 7 41 0
2 7 46 0
8 7 49 0
3 7 80 0
2 7 82 0
3 8 -119 0
1 8 -94 0
1 8 -47 0
5 8 -14 0
2 8 23 0
4 8 51 0
8 8 65 0
2 8 114 0
2 9 -122 0
7 9 -119 0
6 9 -53 0
6 9 -52 0
7 9 29 0
4 9 30 0
9 9 48 0
5 9 58 0
7 9 79 0
7 9 97 0
4 9 139 0
6 10 -121 0
2 10 -81 0
9 10 -75 0
7 10 -34 0
5 10 -32 0
3 10 46 0
10 10 55 0
9 10 58 0
4 10 71 0
8 10 108 0
2 10 115 0
5 11 -99 0
1 11 -82 0
2 11 -73 0
5 11 -50 0
5 11 -44 0
3 11 -30 0
8 11 14 0
3 11 42 0
4 11 59 0
9 11 73 0
9 12 -113 0
9 12 -101 0
5 12 -92 0
6 12 -26 0
2 12 -19 0
3 12 25 0
1 12 33 0
9 12 73 0
9 12 94 0
4 12 102 0
5 12 129 0
10 13 -137 0
3 13 -127 0
2 13 -123 0
4 13 -78 0
5 13 -61 0
2 13 -55 0
3 13 19 0
8 13 51 0
9 13 67 0
4 13 95 0
3 14 -112 0
9 14 -107 0
5 14 -86 0
7 14 -59 0
4 14 -32 0
8 14 29 0
5 14 68 0
6 14 72 0
2 14 76 0
4 14 118 0
6 15 -99 0
9 15 -93 0
7 15 -56 0
2 15 -46 0
1 15 -39 0
10 15 52 0
3 15 63 0
9 15 79 0
9 15 91 0
6 15 110 0
4 15 140 0
8 16 -135 0
8 16 -90 0
4 16 -79 0
2 16 -65 0
3 16 -37 0
5 16 38 0
5 16 62 0
1 16 102 0
4 16 114 0
8 17 -130 0
3 17 -120 0
3 17 -84 0
3 17 -83 0
9 17 -81 0
6 17 -32 0
10 17 88 0
4 17 138 0
3 18 -73 0
1 18 -40 0
7 18 43 0
8 18 58 0
9 18 119 0
5 18 127 0
9 18 138 0
9 19 -127 0
5 19 -109 0
1 19 -100 0
8 19 -65 0
3 19 -60 0
6 19 -24 0
2 19 27 0
1 19 30 0
4 19 78 0
5 19 118 0
3 19 131 0
6 19 132 0
9 20 -109 0
6 20 -85 0
6 20 -79 0
3 20 -56 0
4 20 -34 0
8 20 -30 0
5 20 -22 0
6 20 29 0
8 20 38 0
2 20 52 0
6 20 67 0
2 20 73 0
4 20 100 0
6 20 109 0
8 20 113 0
1 21 -132 0
5 21 -52 0
3 21 -44 0
9 21 -40 0
4 21 -37 0
7 21 -34 0
9 21 -32 0
3 21 69 0
9 21 79 0
5 21 81 0
3 21 97 0
9 21 99 0
8 21 111 0
8 22 -112 0
2 22 -108 0
4 22 -97 0
7 22 -93 0
7 22 -61 0
9 22 -28 0
9 22 44 0
1 23 -130 0
8 23 -128 0
4 23 -125 0
6 23 -91 0
5 23 70 0
5 23 79 0
2 23 122 0
6 24 -127 0
8 24 -119 0
6 24 -110 0
5 24 -87 0
8 24 -72 0
1 24 -37 0
7 24 -31 0
7 24 -26 0
5 24 84 0
4 24 95 0
6 24 104 0
6 25 -77 0
2 25 -72 0
10 25 79 0
9 25 88 0
1 25 121 0
8 25 122 0
6 26 -79 0
2 26 78 0
2 26 86 0
3 26 130 0
8 27 -129 0
10 27 -95 0
2 27 -94 0
8 27 -90 0
8 27 -89 0
6 27 -88 0
4 27 -68 0
3 27 53 0
10 27 75 0
5 27 117 0
8 27 124 0
8 27 125 0
2 28 -126 0
3 28 -99 0
5 28 41 0
2 28 42 0
9 28 57 0
2 28 129 0
5 29 -125 0
2 29 67 0
7 29 97 0
1 29 112 0
4 29 116 0
6 29 140 0
9 30 -135 0
4 30 -93 0
4 30 -89 0
5 30 40 0
5 30 131 0
5 30 137 0
7 31 -110 0
4 31 -92 0
5 31 -40 0
8 31 33 0
2 31 53 0
2 31 60 0
4 31 74 0
5 32 -120 0
4 32 -84 0
4 32 -72 0
10 32 -59 0
2 32 34 0
1 32 39 0
1 32 83 0
4 32 105 0
6 32 106 0
2 33 -81 0
3 33 48 0
7 33 49 0
6 33 57 0
5 33 85 0
4 34 -98 0
7 34 -79 0
7 34 -78 0
9 34 46 0
6 34 72 0
2 34 134 0
3 35 -97 0
10 35 -94 0
6 35 70 0
7 35 94 0
7 35 109 0
9 35 113 0
2 35 116 0
5 35 133 0
9 36 -139 0
3 36 -135 0
8 36 -40 0
5 36 -39 0
6 36 97 0
2 36 110 0
4 36 118 0
8 37 -128 0
3 37 -97 0
5 37 -96 0
2 37 -89 0
7 37 -84 0
6 37 -73 0
4 37 -58 0
4 37 -57 0
2 37 -51 0
8 37 -45 0
7 37 122 0
8 37 124 0
5 38 -76 0
6 38 49 0
4 38 85 0
6 38 92 0
9 39 -132 0
4 39 -78 0
2 39 -72 0
6 39 -50 0
10 39 -47 0
9 39 -43 0
6 39 40 0
5 39 59 0
9 39 75 0
9 39 78 0
3 39 134 0
4 39 139 0
5 40 -95 0
5 40 -73 0
7 40 -65 0
3 40 59 0
6 40 68 0
2 40 97 0
4 40 100 0
4 40 137 0
6 41 -131 0
7 41 -123 0
7 41 -95 0
7 41 -79 0
5 41 44 0
4 41 50 0
5 41 115 0
10 41 135 0
10 42 -65 0
8 42 60 0
6 42 74 0
8 42 85 0
1 42 132 0
6 43 -126 0
4 43 -122 0
1 43 -118 0
6 43 -75 0
10 43 -44 0
5 44 -97 0
4 44 -74 0
8 44 -60 0
8 44 -58 0
7 44 52 0
3 44 68 0
2 44 93 0
4 44 110 0
5 45 -109 0
7 45 -103 0
5 45 -102 0
8 45 -73 0
1 45 -64 0
10 45 -55 0
5 45 -54 0
7 45 -46 0
7 45 53 0
9 45 64 0
1 45 117 0
2 46 -119 0
9 46 -100 0
1 46 -68 0
9 46 -53 0
5 46 81 0
8 46 93 0
9 46 112 0
1 46 129 0
2 46 135 0
9 47 -138 0
6 47 -94 0
2 47 -76 0
4 47 57 0
9 47 89 0
9 47 126 0
2 47 132 0
6 48 -107 0
2 48 -93 0
3 48 -79 0
9 48 -64 0
6 48 -54 0
9 48 -52 0
3 48 92 0
3 48 112 0
9 48 127 0
3 48 131 0
7 49 -136 0
6 49 -134 0
9 49 -105 0
6 49 71 0
7 49 91 0
10 49 111 0
5 50 -77 0
7 50 -52 0
8 51 -138 0
9 51 -127 0
5 51 -65 0
7 51 70 0
9 52 -138 0
7 52 -122 0
6 52 -63 0
5 52 110 0
7 52 125 0
9 52 136 0
4 53 -140 0
6 53 -95 0
10 53 54 0
9 53 65 0
7 53 75 0
2 53 78 0
8 53 106 0
3 53 134 0
1 53 135 0
10 54 -134 0
5 54 -110 0
9 54 -82 0
3 54 112 0
2 54 114 0
5 54 122 0
2 55 -133 0
7 55 -124 0
2 55 -102 0
2 55 92 0
3 55 103 0
8 56 -134 0
9 56 -99 0
2 56 -66 0
3 56 78 0
6 56 89 0
10 56 122 0
8 56 123 0
3 57 -127 0
5 57 -102 0
6 57 126 0
2 57 129 0
7 58 -107 0
2 58 75 0
1 58 76 0
6 59 -137 0
9 59 -136 0
2 59 -78 0
4 59 62 0
2 60 -74 0
3 60 66 0
4 60 69 0
6 60 83 0
2 60 92 0
6 60 109 0
7 60 110 0
6 60 135 0
7 61 -86 0
4 61 91 0
7 61 99 0
8 61 114 0
6 61 126 0
5 61 128 0
7 62 -117 0
7 63 -137 0
7 63 -81 0
3 63 -64 0
6 63 66 0
6 63 71 0
5 63 72 0
1 63 89 0
1 63 134 0
5 64 -97 0
8 64 -68 0
3 64 101 0
6 64 107 0
4 65 -137 0
1 65 -77 0
7 65 -74 0
7 65 120 0
2 65 122 0
9 66 -130 0
9 66 -125 0
6 66 -114 0
10 66 -113 0
5 66 -93 0
3 66 69 0
6 66 95 0
2 66 98 0
6 66 121 0
4 67 -140 0
9 67 -84 0
2 67 -73 0
8 67 -69 0
6 67 69 0
7 67 90 0
5 68 -140 0
8 68 -137 0
4 68 119 0
10 68 121 0
3 68 131 0
4 68 132 0
10 68 136 0
7 69 -130 0
1 69 -117 0
3 69 -101 0
3 69 -87 0
4 69 -74 0
3 69 76 0
9 69 89 0
10 70 -134 0
4 70 -126 0
8 70 -107 0
9 70 -89 0
9 70 -81 0
7 70 97 0
5 70 116 0
2 71 -123 0
4 71 -108 0
6 71 -73 0
8 71 114 0
6 71 118 0
4 71 122 0
8 72 -139 0
4 72 -88 0
9 72 -73 0
6 72 74 0
8 72 80 0
7 72 98 0
8 73 -140 0
8 73 -130 0
9 73 106 0
2 73 128 0
8 74 -136 0
6 74 -135 0
3 74 -92 0
9 74 -83 0
7 74 82 0
6 74 116 0
2 75 -128 0
6 75 -119 0
6 75 -100 0
5 75 125 0
4 75 130 0
5 76 -135 0
4 76 -111 0
1 76 104 0
8 76 129 0
6 76 133 0
4 77 -114 0
4 77 -89 0
3 77 -79 0
9 77 80 0
7 77 104 0
2 77 113 0
3 78 -139 0
7 78 -103 0
6 78 -94 0
1 78 -91 0
4 79 -140 0
4 79 -135 0
8 79 -126 0
2 79 132 0
5 80 -123 0
5 80 -118 0
7 80 -114 0
7 80 -113 0
4 80 -110 0
4 80 94 0
3 80 109 0
5 80 140 0
9 81 -135 0
7 81 -89 0
9 81 94 0
3 82 94 0
2 82 101 0
4 82 104 0
3 82 113 0
9 83 -123 0
9 83 -102 0
6 83 97 0
3 83 113 0
2 84 -117 0
5 85 112 0
10 86 -138 0
2 86 -102 0
7 86 117 0
6 86 140 0
8 87 -129 0
7 87 -117 0
9 87 -95 0
2 87 90 0
5 87 104 0
1 87 140 0
6 88 -104 0
9 88 117 0
7 88 123 0
3 88 131 0
4 89 -135 0
1 89 -109 0
5 89 -104 0
8 89 -92 0
9 89 98 0
2 89 116 0
8 89 124 0
3 90 -128 0
3 90 -96 0
1 90 128 0
5 91 -119 0
3 91 -102 0
9 91 115 0
1 91 118 0
5 92 -120 0
10 92 -116 0
5 92 125 0
5 92 129 0
2 93 -114 0
2 93 103 0
2 93 125 0
9 94 101 0
9 94 113 0
10 94 116 0
10 95 100 0
4 96 -115 0
10 96 -114 0
6 96 -110 0
3 96 100 0
7 96 116 0
8 96 118 0
5 96 129 0
7 97 -133 0
3 97 -132 0
3 97 -109 0
6 97 112 0
4 98 -105 0
10 99 -134 0
8 99 -121 0
7 99 102 0
1 99 103 0
3 99 116 0
8 99 117 0
9 100 -124 0
3 100 102 0
4 100 127 0
9 101 -120 0
7 101 -116 0
8 102 -119 0
1 103 -135 0
8 103 -131 0
8 103 122 0
9 103 138 0
7 104 114 0
8 104 130 0
8 106 -120 0
10 106 112 0
8 107 -125 0
4 108 -118 0
2 109 -133 0
4 109 110 0
3 109 111 0
7 110 -131 0
10 110 118 0
5 110 127 0
9 111 139 0
6 112 -129 0
8 112 -125 0
9 113 -120 0
4 113 123 0
5 115 -137 0
10 115 127 0
5 116 -138 0
3 116 -136 0
9 116 127 0
7 117 -134 0
6 117 120 0
8 117 122 0
4 118 130 0
4 118 133 0
8 118 135 0
3 119 -128 0
2 119 -126 0
7 119 123 0
9 120 -139 0
9 120 -129 0
5 120 -121 0
8 120 124 0
7 121 129 0
8 122 -134 0
10 123 -137 0
1 125 -130 0
1 125 134 0
7 127 130 0
1 127 134 0
5 127 136 0
6 130 -135 0
6 132 137 0
3 132 140 0
5 133 139 0
9 135 -140 0
6 135 -138 0
5 135 139 0
